; benchmark generated from python API
(set-info :status unknown)
(declare-datatypes ((IntState 0)) (((Mk1 (val1 Int)) (Mk2 (val2 Int)))))
 (declare-fun c_main_~i~6 () Int)
(declare-fun c_main_~k~6 () Int)
(declare-fun c_main_~j~6 () Int)
(assert
 (let (($x43 (<= c_main_~i~6 3)))
 (let (($x112 (exists ((main_~i~6_st IntState) (val!24 Int) )(let ((?x56 (val2 main_~i~6_st)))
 (let (($x138 (<= ?x56 4)))
 (let (($x60 (and (<= c_main_~j~6 (+ (* 2 ?x56) 2)) $x138 (<= ?x56 c_main_~k~6))))
 (let (($x52 (not (= main_~i~6_st (Mk1 val!24)))))
 (and $x52 $x60))))))
 ))
 (let (($x106 (<= c_main_~j~6 (+ (* 2 c_main_~i~6) 2))))
 (let (($x100 (<= c_main_~i~6 4)))
 (let (($x126 (<= c_main_~j~6 (+ (* 2 c_main_~i~6) 1))))
 (let (($x5 (exists ((v_nnf_96 Int) )(let (($x114 (<= v_nnf_96 4)))
 (let (($x115 (<= c_main_~j~6 (+ (* 2 v_nnf_96) 2))))
 (and (<= (+ v_nnf_96 2) c_main_~k~6) $x115 $x114))))
 ))
 (and (and $x126 $x100 $x106 $x5 $x43) (not (and $x126 $x100 $x106 $x112 $x43))))))))))
(check-sat)
